NAME : cgl_50.5335.tour
COMMENT : Length = 5335
COMMENT : Found by LKH-3 [Keld Helsgaun] Thu Jun 26 21:26:49 2025
TYPE : TOUR
DIMENSION : 51
TOUR_SECTION
1
3
6
4
5
17
14
15
12
13
16
11
10
7
9
8
51
28
27
25
26
24
23
22
21
19
20
30
29
18
31
32
33
34
50
35
36
37
38
40
39
43
42
41
46
47
48
44
45
49
2
-1
EOF
